6	4
3	3	2	24	1	26	3	28	3	3	42	4	38	2	36	3	4	22	3	24	1	24
3	3	2	24	3	28	1	26	3	3	42	2	40	4	38	3	4	22	1	20	3	24
3	3	2	24	4	26	1	20	3	3	42	1	44	4	44	3	4	22	3	18	2	24
3	3	2	24	3	22	4	26	3	3	42	1	46	2	44	3	4	22	2	20	3	18
4	3	1	20	4	26	3	22	3	2	28	3	26	4	26	3	3	36	1	34	2	32	3	4	18	2	16	1	22
4	3	1	20	2	24	4	18	3	2	28	4	26	3	30	3	3	36	1	32	2	34	3	4	18	3	20	1	20
0	1	2	5	6
6	0	1	4	5
5	6	0	3	4
2	3	4	0	1
1	2	3	6	0
